NAME : O2.4583261.tour
COMMENT : Cost = 0_4583261
COMMENT : Found by LKH [Keld Helsgaun] Mon Dec 18 12:36:12 2017
TYPE : TOUR
DIMENSION : 249
TOUR_SECTION
1
40
80
41
42
43
44
45
46
47
48
49
50
51
91
90
89
88
87
86
85
84
83
82
81
120
243
58
99
100
101
102
103
143
142
182
183
184
185
225
224
223
222
221
220
219
218
217
216
215
214
213
212
242
38
39
79
119
159
199
198
197
196
236
237
238
239
240
201
202
203
204
205
206
207
208
209
210
211
249
57
98
138
139
140
141
181
180
179
178
177
176
175
174
173
172
171
170
169
168
167
166
165
164
163
162
161
200
245
31
32
33
34
35
75
74
73
72
71
70
69
68
67
66
65
64
63
62
61
60
59
248
37
78
118
158
157
156
155
154
153
152
151
150
190
191
192
193
194
195
235
234
233
232
231
230
229
247
3
4
5
6
7
8
9
10
11
12
13
14
15
17
18
19
20
21
22
23
24
25
26
27
28
29
30
241
16
56
55
54
53
52
92
93
94
95
96
97
137
136
135
134
133
132
131
130
129
128
127
126
125
124
123
122
121
160
246
36
76
77
117
116
115
114
113
112
111
110
109
108
107
106
105
104
144
145
146
147
148
149
189
188
187
186
226
227
228
244
2
-1
EOF
